param N := 100;

param m := 506;

param d:=
1	5
2	6
3	9
4	14
5	16
6	24
7	5
8	9
9	18
10	19
11	19
12	22
13	5
14	13
15	15
16	17
17	20
18	22
19	5
20	19
21	20
22	5
23	14
24	16
25	18
26	5
27	10
28	11
29	23
30	5
31	13
32	5
33	20
34	5
35	13
36	5
37	6
38	8
39	17
40	5
41	6
42	5
43	7
44	10
45	10
46	5
47	9
48	13
49	5
50	10
51	11
52	14
53	5
54	6
55	6
56	7
57	14
58	5
59	6
60	13
61	5
62	11
63	6
64	6
65	7
66	22
67	6
68	11
69	6
70	8
71	6
72	7
73	17
74	6
75	8
76	15
77	6
78	14
79	6
80	7
81	8
82	16
83	6
84	7
85	9
86	11
87	6
88	9
89	6
90	6
91	7
92	8
93	7
94	8
95	7
96	8
97	7
98	5
99	7
100	11
;

param: VV: a :=
1	19	1
1	55	1
1	76	1
1	84	1
1	100	1
19	20	1
19	28	1
19	37	1
19	63	1
19	97	1
55	47	1
55	58	1
55	66	1
55	75	1
55	77	1
55	79	1
55	84	1
55	89	1
76	10	1
76	26	1
76	47	1
76	48	1
76	49	1
76	57	1
76	61	1
76	64	1
76	75	1
76	86	1
76	93	1
76	94	1
76	98	1
84	15	1
84	21	1
84	35	1
84	41	1
84	48	1
84	64	1
84	66	1
84	73	1
84	81	1
84	85	1
84	88	1
84	96	1
84	97	1
84	100	1
100	18	1
100	23	1
100	28	1
100	29	1
100	41	1
100	44	1
100	53	1
100	57	1
100	58	1
100	64	1
100	66	1
100	67	1
100	71	1
100	74	1
100	79	1
100	80	1
100	81	1
100	82	1
100	85	1
100	86	1
100	89	1
100	94	1
2	58	1
2	88	1
2	91	1
2	92	1
2	98	1
58	61	1
58	62	1
58	77	1
58	83	1
58	91	1
58	93	1
88	7	1
88	22	1
88	25	1
88	31	1
88	35	1
88	52	1
88	59	1
88	61	1
88	71	1
88	72	1
88	75	1
88	81	1
88	82	1
88	85	1
88	95	1
88	98	1
91	25	1
91	30	1
91	33	1
91	38	1
91	40	1
91	43	1
91	46	1
91	56	1
91	63	1
91	70	1
91	73	1
91	77	1
91	81	1
91	92	1
91	95	1
91	97	1
91	99	1
92	10	1
92	13	1
92	20	1
92	39	1
92	44	1
92	48	1
92	63	1
92	75	1
92	77	1
92	78	1
92	81	1
92	85	1
92	86	1
92	89	1
92	93	1
92	97	1
92	98	1
98	27	1
98	36	1
98	40	1
98	42	1
98	46	1
98	57	1
98	59	1
98	60	1
98	66	1
98	68	1
98	69	1
98	72	1
98	73	1
98	81	1
98	90	1
98	94	1
98	95	1
98	97	1
3	74	1
3	80	1
3	86	1
3	94	1
3	96	1
74	4	1
74	22	1
74	23	1
74	33	1
74	37	1
74	47	1
74	67	1
74	83	1
74	93	1
74	94	1
74	96	1
80	6	1
80	12	1
80	22	1
80	47	1
80	54	1
80	60	1
80	65	1
80	69	1
80	86	1
80	89	1
80	95	1
80	96	1
80	99	1
86	12	1
86	14	1
86	44	1
86	47	1
86	61	1
86	79	1
86	83	1
86	87	1
86	90	1
86	93	1
86	94	1
86	95	1
94	10	1
94	24	1
94	38	1
94	43	1
94	50	1
94	53	1
94	59	1
94	60	1
94	69	1
94	72	1
94	81	1
94	87	1
94	95	1
94	99	1
96	10	1
96	14	1
96	17	1
96	18	1
96	24	1
96	42	1
96	43	1
96	52	1
96	56	1
96	62	1
96	63	1
96	65	1
96	67	1
96	68	1
96	82	1
96	89	1
96	90	1
96	97	1
4	90	1
4	93	1
4	13	1
4	20	1
90	5	1
90	23	1
90	31	1
90	36	1
90	41	1
90	53	1
90	62	1
90	65	1
90	68	1
90	78	1
90	79	1
90	85	1
90	89	1
90	95	1
90	97	1
93	7	1
93	11	1
93	12	1
93	26	1
93	30	1
93	37	1
93	41	1
93	53	1
93	65	1
93	69	1
93	72	1
93	79	1
93	82	1
93	97	1
5	77	1
5	83	1
5	89	1
5	11	1
77	18	1
77	51	1
77	59	1
77	72	1
77	73	1
77	82	1
77	85	1
77	87	1
77	89	1
83	14	1
83	28	1
83	29	1
83	39	1
83	49	1
83	56	1
83	64	1
83	71	1
83	75	1
83	79	1
83	82	1
83	99	1
89	12	1
89	15	1
89	39	1
89	46	1
89	51	1
89	62	1
89	72	1
89	78	1
89	9	1
89	99	1
6	62	1
6	65	1
6	99	1
6	31	1
62	33	1
62	40	1
62	64	1
62	85	1
62	87	1
65	51	1
65	8	1
65	66	1
65	71	1
65	82	1
65	95	1
99	8	1
99	17	1
99	21	1
99	24	1
99	31	1
99	32	1
99	37	1
99	39	1
99	42	1
99	60	1
99	64	1
99	69	1
99	70	1
99	71	1
99	78	1
99	82	1
99	95	1
7	70	1
7	46	1
7	52	1
70	17	1
70	32	1
70	35	1
70	36	1
70	45	1
70	54	1
70	66	1
70	68	1
70	81	1
70	87	1
8	95	1
8	45	1
8	50	1
95	24	1
95	26	1
95	32	1
95	40	1
95	48	1
95	52	1
95	54	1
95	71	1
95	82	1
95	87	1
10	71	1
71	30	1
71	63	1
71	67	1
71	68	1
71	79	1
71	81	1
11	36	1
11	53	1
11	87	1
36	47	1
36	49	1
53	25	1
53	46	1
53	72	1
87	16	1
87	34	1
87	44	1
87	45	1
87	48	1
87	69	1
87	75	1
87	85	1
87	9	1
87	97	1
12	35	1
35	43	1
35	66	1
13	43	1
13	60	1
13	61	1
43	41	1
43	97	1
60	49	1
60	78	1
60	81	1
60	82	1
60	97	1
61	29	1
61	54	1
61	64	1
61	73	1
61	97	1
14	56	1
14	72	1
56	31	1
56	59	1
56	67	1
56	75	1
56	85	1
72	28	1
72	49	1
72	59	1
72	79	1
72	82	1
15	63	1
15	68	1
15	78	1
63	26	1
63	49	1
63	9	1
63	81	1
68	18	1
68	22	1
68	34	1
68	54	1
68	67	1
78	21	1
78	27	1
78	30	1
78	31	1
78	38	1
78	49	1
78	50	1
78	85	1
16	24	1
16	33	1
16	40	1
16	79	1
24	85	1
33	32	1
33	54	1
40	26	1
40	30	1
79	38	1
79	41	1
79	42	1
79	64	1
79	85	1
17	21	1
17	73	1
21	69	1
21	97	1
73	46	1
73	48	1
73	50	1
73	75	1
73	82	1
73	85	1
73	97	1
18	69	1
69	23	1
69	67	1
69	82	1
20	34	1
20	37	1
20	67	1
28	82	1
28	85	1
37	42	1
37	48	1
97	22	1
97	23	1
97	25	1
97	32	1
97	44	1
97	57	1
97	66	1
97	67	1
34	45	1
34	81	1
34	82	1
67	50	1
67	51	1
22	52	1
52	27	1
52	59	1
52	64	1
23	42	1
42	47	1
85	27	1
85	50	1
85	51	1
25	51	1
25	81	1
51	54	1
51	75	1
81	45	1
81	66	1
26	75	1
75	38	1
75	39	1
75	46	1
75	57	1
27	41	1
27	49	1
82	57	1
29	39	1
29	57	1
29	66	1
39	44	1
57	44	1
57	66	1
30	59	1
59	64	1
32	45	1
45	9	1
54	38	1
48	9	1
38	50	1
50	64	1
;